(set-info :status unknown)
(declare-fun mem0 () (_ BitVec 8))
(declare-fun |ana_WillNotOverflowSignedAdd(%x, %y)| () (_ BitVec 1))
(declare-fun u_%sy () (_ BitVec 8))
(declare-fun u_%sx () (_ BitVec 8))
(declare-fun %y () (_ BitVec 27))
(declare-fun %x () (_ BitVec 27))
(assert
 (let (($x441 (= |ana_WillNotOverflowSignedAdd(%x, %y)| (_ bv1 1))))
 (let (($x6294 (= (bvadd ((_ sign_extend 1) %x) ((_ sign_extend 1) %y)) ((_ sign_extend 1) (bvadd %x %y)))))
 (and (=> $x441 $x6294) (or (= u_%sx (_ bv1 8)) (= u_%sy (_ bv1 8))) $x441 (and (distinct mem0 mem0) true)))))
(check-sat)
